53,22
34,28
2,5
40,85
88,38
74,20
82,21
0,46
84,31
11,12
42,37
90,44
85,22
9,8
4,51
3,10
90,40
41,33
10,50
96,45
48,90
87,31
79,26
39,32
0,91
89,45
91,46
3,53
44,0
89,41
40,32
42,86
0,13
97,45
1,50
45,94
36,33
4,15
42,88
42,29
92,0
75,26
78,0
77,29
5,47
